c SAT Generator for power-law distributed variable frequencies
c -g u -v 20 -c 91 -k 3 -p 2.750000 -b 3.200000 -f /home/schmidt/Devel/ni-kop-sat/data/ensemble/ruf20-91/ruf20-91-802 -u 1 -U 1 -s 3844749253
p cnf 20 91
4 6 -8 0
3 -9 -17 0
-1 -5 17 0
2 6 16 0
3 10 -11 0
-4 9 16 0
4 -14 19 0
7 -16 -19 0
-4 -11 19 0
5 -7 -8 0
-12 14 -16 0
11 13 -18 0
3 -7 13 0
-11 13 20 0
-5 -13 -19 0
-4 13 -20 0
-2 -18 -20 0
-10 15 16 0
9 12 15 0
-3 4 -7 0
2 -8 16 0
3 -6 7 0
-7 9 -13 0
-1 6 12 0
-8 -16 18 0
-2 11 -20 0
-6 14 20 0
1 15 -16 0
-1 14 18 0
-3 8 -19 0
-14 17 -18 0
-2 3 7 0
3 9 15 0
-6 14 -15 0
11 13 16 0
9 12 -17 0
-2 10 -12 0
-4 -5 -8 0
-5 12 -15 0
-10 -18 20 0
8 14 -15 0
3 5 -11 0
6 10 17 0
7 -11 -17 0
5 6 9 0
4 7 -9 0
-4 -16 -17 0
1 2 19 0
1 -2 17 0
-4 6 -7 0
-3 7 -14 0
-5 -8 10 0
-12 17 19 0
8 -10 19 0
-5 -6 16 0
1 5 -15 0
-2 6 -19 0
3 -13 -20 0
11 -15 19 0
-5 16 -20 0
7 19 20 0
1 2 20 0
-3 8 17 0
8 -9 -15 0
4 -15 17 0
-2 -8 19 0
2 -5 -10 0
-8 17 -18 0
7 -10 -17 0
13 -17 20 0
4 -11 13 0
7 17 -19 0
-5 8 10 0
3 -15 -18 0
10 -12 13 0
6 -8 -17 0
5 9 -20 0
2 -12 -17 0
-4 6 17 0
-2 6 -10 0
-2 -7 -13 0
2 4 16 0
6 -7 -17 0
10 -19 -20 0
-7 -10 -14 0
-3 -7 -16 0
10 -16 -18 0
-5 9 13 0
-6 8 -15 0
11 -13 -15 0
-3 -4 16 0
